c --- [ banner ] -------------------------------------------------------------
c 
c CaDiCaL Radically Simplified CDCL SAT Solver
c Copyright (c) 2016-2021 A. Biere, M. Fleury, N. Froleyks
c 
c Version 1.5.2 9c38a080b32c28d805e8e6ca21849856b0cda605
c g++ (Ubuntu 7.5.0-3ubuntu1~18.04) 7.5.0 -Wall -Wextra -O3 -DNDEBUG
c Wed Feb 16 23:15:36 EST 2022 Linux fac-vanhoeve01 5.4.0-99-generic x86_64
c 
c --- [ limit ] --------------------------------------------------------------
c 
c setting time limit to 600 seconds real time (due to '-t 600')
c setting conflict limit to 1000000000 conflicts (due to '1000000000')
c 
c --- [ parsing input ] ------------------------------------------------------
c 
c reading DIMACS file from 'ddfwcnfs/queen16_16.col_16.cnf'
c opening file to read 'ddfwcnfs/queen16_16.col_16.cnf'
c found 'p cnf 4096 92016' header
c parsed 92016 clauses in 0.04 seconds process time
c closing file 'ddfwcnfs/queen16_16.col_16.cnf'
c after reading 1248789 bytes 1.2 MB
c 
c --- [ options ] ------------------------------------------------------------
c 
c all options are set to their default value
c 
c --- [ solving ] ------------------------------------------------------------
c 
c time measured in process time since initialization
c 
c  seconds  reductions  redundant  irredundant
c         MB    restarts       trail     variables
c          level   conflicts       glue       remaining
c 
c *  0.04 11  0 0   0    0    0  0% 0 91760 3840 94%
c {  0.05 12  0 0   0    0    0  0% 0 91760 3840 94%
c -  0.07 12 15 1   0  300  112 23% 12 91760 3840 94%
c -  0.11 15 16 2  27  901  342 23% 13 91760 3840 94%
c }  0.12 15 16 2  29 1000  390 23% 13 91760 3840 94%
c [  0.12 15  0 2  29 1000  390  0% 0 91760 3840 94%
c O  0.12 15 27 2  29 1002  392 30% 13 91760 3840 94%
c -  0.16 15 18 3  29 1803  655 23% 15 91760 3840 94%
c ]  0.20 15 19 3  30 3002 1483 23% 16 91760 3840 94%
c {  0.20 15 16 3  30 3002 1483 23% 13 91760 3840 94%
c F  0.20 15 16 3  30 3003 1484 23% 13 91760 3840 94%
c -  0.21 15 16 4  30 3003 1055 23% 13 91760 3840 94%
c -  0.28 15 17 5  60 4503 1114 23% 13 91760 3840 94%
c #  0.38 15 16 5  72 6004 1893 23% 13 91760 3840 94%
c -  0.41 15 16 6  98 6303 1343 23% 13 91760 3840 94%
c }  0.43 15 16 6 141 7004 1697 23% 13 91760 3840 94%
c [  0.43 15 19 6 141 7004 1697 23% 16 91760 3840 94%
c -  0.49 15 21 7 142 8403 1780 23% 17 91760 3840 94%
c s  0.53 17 22 7 143 9158 2072 23% 17 91760 3840 94%
c w  0.56 17 22 7 143 9158 2072 23% 17 91760 3840 94%
c 
c  seconds  reductions  redundant   irredundant
c         MB    restarts       trail      variables
c          level   conflicts       glue        remaining
c 
c e  0.73 17 22 7 143 9158    8 23% 17 71904 3120 76%
c ^  0.78 19 22 7 143 9158    8 23% 17 71904 3120 76%
c I  0.84 17 23 7 143 10005  630 18% 17 71904 3120 76%
c -  0.98 19 54 8 144 10805 1409 51% 28 71904 3120 76%
c -  1.46 20 91 9 146 13507 3007 72% 50 71904 3120 76%
c ]  1.73 20 101 9 146 15006 4409 75% 56 71904 3120 76%
c {  1.73 20 16 9 146 15006 4409 30% 13 71904 3120 76%
c B  1.80 20 16 9 146 15007 4410 30% 13 71904 3120 76%
c -  1.88 20 16 10 317 16507 3034 27% 13 71904 3120 76%
c -  2.01 17 16 11 336 19809 2376 24% 13 71904 3120 76%
c W  2.12 17 15 11 364 21008 2981 23% 13 71904 3120 76%
c -  2.55 19 29 12 857 23410 3460 32% 18 71904 3120 76%
c s  2.79 19 31 12 996 27265 5952 31% 18 71904 3120 76%
c w  2.84 19 31 12 996 27265 5951 31% 18 71904 3120 76%
c s  2.95 19 31 12 996 27265 5874 31% 18 71904 3120 76%
c ^  2.96 19 31 12 996 27265 5874 31% 18 71904 3120 76%
c -  2.99 21 31 13 1007 27310 3795 31% 18 71904 3120 76%
c F  3.02 21 31 13 1151 28009 4131 30% 18 71904 3120 76%
c }  3.22 21 28 13 1152 31006 6136 28% 17 71904 3120 76%
c [  3.22 21 101 13 1152 31006 6136 75% 56 71904 3120 76%
c 
c  seconds  reductions     redundant   irredundant
c         MB     restarts         trail      variables
c          level      conflicts       glue        remaining
c 
c -  3.26 21 97 14 1152 31510 3678 70% 54 71904 3120 76%
c -  3.48 21 74 15 1155 36010 4444 48% 43 71904 3120 76%
c B  3.48 21 74 15 1155 36011 4445 48% 43 71904 3120 76%
c -  3.96 25 112 16 1158 40813 5183 51% 50 71904 3120 76%
c W  4.81 25 118 16 1159 45012 8966 59% 59 71904 3120 76%
c -  5.00 22 118 17 1160 45914 6170 60% 60 71904 3120 76%
c -  6.06 26 121 18 1160 51314 6921 66% 64 71904 3120 76%
c s  6.65 26 121 18 1161 54425 9660 68% 66 71904 3120 76%
c s  6.85 26 121 18 1161 54425 9563 68% 66 71904 3120 76%
c ^  6.86 26 121 18 1161 54425 9563 68% 66 71904 3120 76%
c O  6.96 26 121 18 1161 55013 10115 69% 66 71904 3120 76%
c -  7.06 22 114 19 1163 57015 7237 65% 62 71904 3120 76%
c ]  7.30 22 99 19 1167 63007 11323 56% 55 71904 3120 76%
c {  7.30 22 28 19 1167 63007 11323 28% 17 71904 3120 76%
c -  7.32 23 28 20 1167 63017 5934 28% 17 71904 3120 76%
c B  7.45 23 27 20 1175 66017 7550 27% 17 71904 3120 76%
c -  7.65 23 27 21 1296 69317 5868 27% 17 71904 3120 76%
c -  8.51 23 33 22 2186 75919 6618 31% 19 71904 3120 76%
c W  8.73 23 32 22 2186 78019 7904 31% 19 71904 3120 76%
c -  9.01 25 32 23 2284 82819 6829 30% 19 71904 3120 76%
c 
c  seconds  reductions     redundant   irredundant
c         MB     restarts         trail      variables
c          level      conflicts       glue        remaining
c 
c -  9.40 25 30 24 2299 90019 7843 29% 18 71904 3120 76%
c s  9.46 25 30 24 2299 90638 7949 29% 18 71904 3120 76%
c s  9.60 25 30 24 2299 90638 7884 29% 18 71904 3120 76%
c ^  9.61 25 30 24 2299 90638 7884 29% 18 71904 3120 76%
c #  9.63 25 30 24 2299 91022 8159 29% 18 71904 3120 76%
c -  9.88 25 28 25 2300 97519 7636 27% 17 71904 3120 76%
c B 10.28 25 26 25 2302 105024 12781 26% 17 71904 3120 76%
c - 10.37 25 27 26 2371 105319 7522 26% 17 71904 3120 76%
c - 10.91 25 28 27 2943 113419 7257 27% 18 71904 3120 76%
c W 11.42 25 27 27 3015 120026 12078 26% 17 71904 3120 76%
c - 11.53 25 27 28 3015 121819 8188 26% 17 71904 3120 76%
c } 11.76 25 26 28 3015 127008 11761 25% 17 71904 3120 76%
c [ 11.76 25 99 28 3015 127008 11761 56% 55 71904 3120 76%
c - 11.96 25 92 29 3015 130519 8539 52% 52 71904 3120 76%
c s 12.24 25 83 29 3020 135903 11785 48% 47 71904 3120 76%
c s 12.43 25 83 29 3020 135903 11631 48% 47 71904 3120 76%
c ^ 12.44 25 83 29 3020 135903 11631 48% 47 71904 3120 76%
c B 12.45 25 83 29 3020 136027 11709 48% 47 71904 3120 76%
c - 12.91 25 94 30 3022 139520 10085 51% 49 71904 3120 76%
c - 14.56 30 93 31 3023 148822 10905 57% 53 71904 3120 76%
c 
c  seconds  reductions       redundant   irredundant
c         MB     restarts           trail      variables
c          level      conflicts         glue        remaining
c 
c W 15.64 30 92 31 3024 153029 14557 60% 54 71904 3120 76%
c - 16.49 25 132 32 3024 158422 12302 62% 58 71904 3120 76%
c - 18.44 32 188 33 3025 168324 13324 65% 64 71904 3120 76%
c I 18.92 32 184 33 3027 171031 15809 66% 65 71904 3120 76%
c - 20.87 35 203 34 3031 178524 13381 68% 77 71904 3120 76%
c - 24.26 36 206 35 3038 189026 14008 71% 86 71904 3120 76%
c B 24.58 36 206 35 3038 190035 14964 71% 87 71904 3120 76%
c s 24.63 36 207 35 3038 190222 14952 71% 87 71904 3120 76%
c s 24.87 36 207 35 3038 190222 14930 71% 87 71904 3120 76%
c - 26.71 28 197 36 3039 199826 14574 73% 86 71904 3120 76%
c W 29.21 28 185 36 3046 210037 24178 75% 84 71904 3120 76%
c - 29.46 35 184 37 3046 210926 14600 75% 84 71904 3120 76%
c - 31.74 35 171 38 3053 222328 14406 77% 82 71904 3120 76%
c O 33.45 35 162 38 3054 231038 22074 78% 81 71904 3120 76%
c - 33.97 35 159 39 3054 234028 14780 78% 80 71904 3120 76%
c - 36.27 35 147 40 3055 246028 14573 79% 77 71904 3120 76%
c B 37.78 35 142 40 3056 253039 20944 79% 76 71904 3120 76%
c ] 38.07 35 142 40 3056 255008 22781 79% 76 71904 3120 76%
c { 38.07 35 26 40 3056 255008 22781 25% 17 71904 3120 76%
c - 38.35 35 27 41 3187 258330 15785 25% 17 71904 3120 76%
c 
c  seconds  reductions       redundant   irredundant
c         MB     restarts           trail      variables
c          level      conflicts         glue        remaining
c 
c - 38.98 35 27 42 3223 270930 14380 24% 16 71904 3120 76%
c F 39.36 35 27 42 3236 276040 18372 23% 16 71904 3120 76%
c - 39.71 35 26 43 3241 283831 12927 22% 16 71904 3120 76%
c - 40.37 35 24 44 3281 297032 12766 21% 15 71904 3120 76%
c B 40.52 35 24 44 3291 300041 14570 21% 15 71904 3120 76%
c - 41.28 35 26 45 3778 310534 13720 22% 16 71904 3120 76%
c - 41.85 35 24 46 3848 324336 12053 22% 16 71904 3120 76%
c W 42.40 35 24 46 3854 325046 12519 22% 16 71904 3120 76%
c - 43.23 35 24 47 4219 338437 11875 22% 16 71904 3120 76%
c # 43.90 35 24 47 4403 351047 21195 23% 16 71904 3120 76%
c - 44.01 35 24 48 4403 352837 13738 22% 16 71904 3120 76%
c - 44.69 35 23 49 4451 367539 12822 22% 15 71904 3120 76%
c B 45.20 35 22 49 4470 378048 19573 22% 15 71904 3120 76%
c - 45.50 35 22 50 4651 382539 13010 22% 15 71904 3120 76%
c - 46.28 35 22 51 4929 397839 11882 22% 15 71904 3120 76%
c W 47.30 35 21 51 5020 406049 16865 22% 15 71904 3120 76%
c - 47.66 35 21 52 5056 413439 12164 22% 15 71904 3120 76%
c - 48.43 35 20 53 5295 429340 13139 21% 15 71904 3120 76%
c F 48.70 35 20 53 5342 435050 16048 21% 15 71904 3120 76%
c - 49.21 35 19 54 5410 445540 13159 21% 15 71904 3120 76%
c 
c  seconds  reductions       redundant   irredundant
c         MB     restarts           trail      variables
c          level      conflicts         glue        remaining
c 
c - 50.04 35 19 55 5468 462044 12516 21% 14 71904 3120 76%
c B 50.16 35 19 55 5484 465054 14150 21% 14 71904 3120 76%
c - 50.84 35 19 56 5908 478844 13091 21% 14 71904 3120 76%
c - 51.80 35 20 57 6454 495944 14444 22% 15 71904 3120 76%
c W 52.55 35 20 57 6480 496058 14551 22% 15 71904 3120 76%
c } 53.36 35 21 57 7246 511008 23362 22% 15 71904 3120 76%
c [ 53.36 35 142 57 7246 511008 23362 79% 76 71904 3120 76%
c - 53.51 35 139 58 7246 513346 13971 78% 74 71904 3120 76%
c s 53.55 35 139 58 7246 513346 11999 78% 74 71904 3120 76%
c w 53.67 35 139 58 7246 513346 11996 78% 74 71904 3120 76%
c W 57.63 35 186 58 7246 528059 25986 79% 78 71904 3120 76%
c - 58.28 46 183 59 7246 531048 20037 80% 78 71904 3120 76%
c - 62.38 35 166 60 7253 549050 22149 81% 77 71904 3120 76%
c I 65.31 35 156 60 7259 561065 32874 81% 76 71904 3120 76%
c - 66.92 43 163 61 7261 567350 23754 81% 80 71904 3120 76%
c - 71.87 58 170 62 7268 585950 24189 82% 88 71904 3120 76%
c B 74.83 58 170 62 7275 595068 32446 82% 91 71904 3120 76%
c - 76.67 56 178 63 7276 604851 24841 82% 91 71904 3120 76%
c - 80.78 43 165 64 7278 624052 23875 82% 90 71904 3120 76%
c W 83.34 43 162 64 7283 630070 28932 82% 90 71904 3120 76%
c 
c  seconds   reductions       redundant   irredundant
c         MB      restarts           trail      variables
c           level      conflicts         glue        remaining
c 
c - 86.55 52 153 65 7290 643552 24388 82% 88 71904 3120 76%
c - 91.36 52 142 66 7298 663353 25368 83% 86 71904 3120 76%
c O 92.00 52 141 66 7299 666075 27687 83% 86 71904 3120 76%
c - 93.23 52 123 67 7307 683454 22971 74% 76 71904 3120 76%
c B 94.50 52 107 67 7308 703078 37469 65% 67 71904 3120 76%
c - 94.67 52 110 68 7308 703857 22785 65% 67 71904 3120 76%
c - 98.26 52 115 69 7309 724560 24879 69% 69 71904 3120 76%
c W 103.08 52 112 69 7310 741082 39828 71% 69 71904 3120 76%
c - 104.31 57 110 70 7310 745562 27571 72% 69 71904 3120 76%
c - 110.28 57 105 71 7310 766862 29077 74% 69 71904 3120 76%
c I 113.77 57 102 71 7310 780085 40081 76% 69 71904 3120 76%
c - 115.93 72 144 72 7310 788463 29293 76% 79 71904 3120 76%
c - 123.73 82 226 73 7313 810363 29660 77% 106 71904 3120 76%
c B 126.34 82 222 73 7319 820086 38536 78% 109 71904 3120 76%
c - 128.92 57 214 74 7325 832564 28103 79% 107 71904 3120 76%
c - 135.38 63 195 75 7335 855064 27700 80% 103 71904 3120 76%
c W 138.15 63 189 75 7339 861089 33041 81% 102 71904 3120 76%
c - 142.91 63 175 76 7341 877864 28227 82% 98 71904 3120 76%
c s 142.99 63 175 76 7341 877864 27537 82% 98 71904 3120 76%
c w 143.18 63 175 76 7341 877864 27535 82% 98 71904 3120 76%
c 
c  seconds    reductions       redundant   irredundant
c          MB      restarts           trail      variables
c            level      conflicts         glue        remaining
c 
c - 149.60 63 159 77 7348 900965 31623 83% 93 71904 3120 76%
c O 150.11 63 157 77 7350 903092 33587 83% 93 71904 3120 76%
c - 151.29 63 132 78 7358 924365 25836 71% 79 71904 3120 76%
c B 152.65 63 112 78 7370 946095 41479 61% 68 71904 3120 76%
c - 153.07 63 117 79 7371 948065 25665 61% 69 71904 3120 76%
c - 159.02 63 117 80 7372 972066 28156 67% 72 71904 3120 76%
c W 166.31 63 115 80 7373 990098 43753 70% 74 71904 3120 76%
c - 168.42 63 114 81 7373 996368 30593 71% 74 71904 3120 76%
c - 176.92 63 109 82 7383 1020969 32808 75% 75 71904 3120 76%
c ] 177.52 63 108 82 7384 1023009 34536 75% 75 71904 3120 76%
c { 177.52 63 21 82 7384 1023009 34536 22% 15 71904 3120 76%
c # 178.00 63 20 82 7545 1035100 41045 22% 15 71904 3120 76%
c - 178.48 63 20 83 7640 1045869 23787 22% 15 71904 3120 76%
c - 179.71 63 20 84 7944 1071069 20399 22% 15 71904 3120 76%
c B 180.14 63 19 84 8078 1081102 25857 21% 15 71904 3120 76%
c - 181.30 63 22 85 9716 1096569 21123 23% 16 71904 3120 76%
c - 182.49 63 20 86 9859 1122369 20538 22% 15 71904 3120 76%
c W 184.48 63 20 86 9942 1128103 23597 22% 15 71904 3120 76%
c - 185.56 63 19 87 10287 1148469 19772 22% 15 71904 3120 76%
c - 186.90 63 19 88 10639 1174870 19280 21% 15 71904 3120 76%
c 
c  seconds   reductions         redundant   irredundant
c          MB      restarts            trail      variables
c           level        conflicts         glue        remaining
c 
c F 186.96 63 19 88 10642 1176104 19982 21% 15 71904 3120 76%
c - 188.16 63 18 89 10725 1201571 21185 21% 14 71904 3120 76%
c B 189.40 63 18 89 11023 1225107 35469 21% 14 71904 3120 76%
c - 189.73 63 19 90 11240 1228571 22912 21% 15 71904 3120 76%
c - 191.29 63 20 91 11822 1255873 27340 21% 14 71904 3120 76%
c W 194.76 63 21 91 12116 1275109 42524 21% 14 71904 3120 76%
c - 195.45 63 21 92 12291 1283473 30089 20% 14 71904 3120 76%
c - 197.46 63 21 93 12823 1311373 26705 20% 14 71904 3120 76%
c s 197.55 63 21 93 12823 1311373 23375 20% 14 71904 3120 76%
c w 197.69 63 21 93 12823 1311373 23367 20% 14 71904 3120 76%
c # 198.56 63 20 93 13092 1326111 30356 20% 14 71904 3120 76%
c - 199.25 63 19 94 13285 1339574 22653 20% 14 71904 3120 76%
c - 200.68 63 18 95 13821 1368075 20364 20% 14 71904 3120 76%
c B 201.15 63 18 95 14053 1378114 24915 20% 14 71904 3120 76%
c - 202.10 63 19 96 14260 1396877 21031 20% 14 71904 3120 76%
c - 203.48 63 19 97 15023 1425977 21832 21% 14 71904 3120 76%
c W 205.73 63 19 97 15117 1431119 24787 21% 14 71904 3120 76%
c - 206.90 63 18 98 15776 1455378 21529 21% 14 71904 3120 76%
c - 208.51 63 18 99 16282 1485078 21221 21% 14 71904 3120 76%
c F 208.51 63 18 99 16282 1485120 21239 21% 14 71904 3120 76%
c 
c  seconds    reductions         redundant   irredundant
c          MB       restarts            trail      variables
c           level         conflicts         glue        remaining
c 
c - 209.98 63 17 100 16636 1515080 21208 21% 14 71904 3120 76%
c B 211.19 63 17 100 17093 1540122 34033 21% 14 71904 3120 76%
c - 211.45 63 17 101 17325 1545383 21300 21% 14 71904 3120 76%
c - 212.73 63 16 102 17903 1575983 20471 21% 14 71904 3120 76%
c W 216.06 63 16 102 18226 1596123 30014 20% 14 71904 3120 76%
c - 216.65 63 16 103 18603 1606885 20768 20% 14 71904 3120 76%
c - 218.28 63 16 104 19600 1638088 20265 20% 14 71904 3120 76%
c # 218.97 63 16 104 19847 1653126 27612 20% 14 71904 3120 76%
c - 219.77 63 16 105 20175 1669589 23221 20% 13 71904 3120 76%
c - 221.39 63 15 106 20617 1701389 23782 20% 13 71904 3120 76%
c B 221.86 63 15 106 20758 1711131 29364 19% 13 71904 3120 76%
c - 223.18 63 18 107 25577 1733490 24497 20% 15 71904 3120 76%
c - 224.91 63 17 108 26123 1765891 24057 20% 15 71904 3120 76%
c s 224.94 63 17 108 26123 1765891 19870 20% 15 71904 3120 76%
c w 225.07 63 17 108 26123 1765891 19866 20% 15 71904 3120 76%
c W 227.79 63 17 108 26161 1770134 22184 20% 15 71904 3120 76%
c - 229.34 63 17 109 26595 1798592 23372 20% 14 71904 3120 76%
c F 231.18 63 16 109 27065 1830137 40308 20% 14 71904 3120 76%
c - 231.28 63 17 110 27075 1831595 25030 20% 14 71904 3120 76%
c - 232.99 63 16 111 27730 1864895 24653 20% 14 71904 3120 76%
c 
c  seconds    reductions         redundant   irredundant
c          MB       restarts            trail      variables
c           level         conflicts         glue        remaining
c 
c B 234.39 63 16 111 28140 1891141 38024 20% 14 71904 3120 76%
c - 234.74 63 16 112 28418 1898495 24201 20% 14 71904 3120 76%
c - 236.34 63 16 113 29009 1932397 24962 20% 14 71904 3120 76%
c W 240.16 63 16 113 29367 1953144 35684 20% 14 71904 3120 76%
c - 241.00 63 16 114 29672 1966597 24611 20% 14 71904 3120 76%
c - 242.95 63 15 115 30658 2001097 24574 20% 13 71904 3120 76%
c # 243.76 63 15 115 30921 2016146 32846 20% 13 71904 3120 76%
c - 244.72 63 15 116 31344 2035897 25171 20% 13 71904 3120 76%
c } 245.18 63 15 116 31583 2047012 30782 20% 13 71904 3120 76%
c [ 245.18 63 108 116 31583 2047012 30782 75% 75 71904 3120 76%
c - 246.38 63 92 117 31593 2070998 29106 64% 63 71904 3120 76%
c I 246.96 63 87 117 31598 2080147 35820 60% 60 71904 3120 76%
c - 254.10 63 128 118 31603 2106399 40427 66% 77 71904 3120 76%
c - 269.36 92 151 119 31618 2142099 45351 72% 96 71904 3120 76%
c B 270.49 92 153 119 31618 2145148 48171 72% 97 71904 3120 76%
c - 284.85 89 152 120 31633 2178100 48636 76% 101 71904 3120 76%
c W 300.31 89 144 120 31635 2211149 79443 79% 99 71904 3120 76%
c - 301.49 89 143 121 31635 2214404 49063 79% 98 71904 3120 76%
c - 312.91 89 134 122 31636 2251004 47673 80% 93 71904 3120 76%
c O 322.91 89 128 122 31636 2278152 72574 81% 91 71904 3120 76%
c 
c  seconds     reductions         redundant   irredundant
c          MB        restarts            trail      variables
c            level         conflicts         glue        remaining
c 
c - 324.33 89 124 123 31636 2287905 49666 81% 87 71904 3120 76%
c s 324.43 89 124 123 31636 2287905 45515 81% 87 71904 3120 76%
c w 324.66 89 124 123 31636 2287905 45507 81% 87 71904 3120 76%
c - 328.14 89 102 124 31637 2325105 43236 69% 72 71904 3120 76%
c B 329.99 89 92 124 31637 2346154 58936 63% 66 71904 3120 76%
c - 333.68 89 134 125 31637 2362606 44115 66% 73 71904 3120 76%
c - 346.11 90 204 126 31637 2400407 50839 72% 88 71904 3120 76%
c W 355.33 90 225 126 31637 2415156 65038 74% 93 71904 3120 76%
c - 362.43 113 201 127 31644 2438507 53898 76% 91 71904 3120 76%
c - 377.47 113 171 128 31662 2476907 50720 79% 89 71904 3120 76%
c I 380.40 113 165 128 31666 2485157 57942 80% 89 71904 3120 76%
c - 389.21 113 189 129 31672 2515607 51361 81% 102 71904 3120 76%
c - 402.60 114 177 130 31690 2554608 49671 82% 104 71904 3120 76%
c B 403.07 114 176 130 31690 2556160 51056 82% 104 71904 3120 76%
c - 413.24 114 161 131 31699 2593909 49072 83% 100 71904 3120 76%
c W 428.70 114 148 131 31701 2628162 80840 84% 97 71904 3120 76%
c - 430.48 114 146 132 31705 2633509 52262 84% 96 71904 3120 76%
c - 443.67 114 130 133 31723 2673410 49586 84% 90 71904 3120 76%
c O 453.31 114 121 133 31731 2701166 73248 84% 87 71904 3120 76%
c - 454.11 114 112 134 31734 2713610 48674 79% 80 71904 3120 76%
c 
c  seconds     reductions         redundant   irredundant
c           MB       restarts            trail      variables
c            level         conflicts         glue        remaining
c 
c - 457.16 114 86 135 31753 2754111 41393 59% 62 71904 3120 76%
c B 459.31 114 75 135 31761 2775168 55137 51% 55 71904 3120 76%
c - 462.67 114 87 136 31763 2794912 45873 58% 56 71904 3120 76%
c - 473.27 114 85 137 31764 2836012 49400 68% 59 71904 3120 76%
c s 473.41 114 85 137 31764 2836012 48908 68% 59 71904 3120 76%
c w 473.69 114 85 137 31764 2836012 48902 68% 59 71904 3120 76%
c W 482.47 114 83 137 31764 2850170 61351 70% 59 71904 3120 76%
c - 490.62 114 83 138 31764 2877413 55938 74% 61 71904 3120 76%
c - 508.60 114 84 139 31779 2919113 55475 79% 64 71904 3120 76%
c I 511.67 114 83 139 31779 2926171 61528 79% 64 71904 3120 76%
c - 522.38 114 117 140 31795 2961113 55649 81% 84 71904 3120 76%
c B 538.75 114 122 140 31810 3003172 93295 82% 90 71904 3120 76%
c - 538.94 135 123 141 31810 3003415 54809 82% 90 71904 3120 76%
c - 549.81 135 135 142 31826 3046015 51760 83% 89 71904 3120 76%
c W 564.24 135 123 142 31827 3081173 83753 83% 84 71904 3120 76%
c - 567.20 135 121 143 31827 3088918 54572 83% 84 71904 3120 76%
c - 584.20 135 110 144 31847 3132118 57350 84% 80 71904 3120 76%
c O 594.26 135 104 144 31858 3160174 81607 84% 79 71904 3120 76%
c - 595.18 63 95 145 31858 3175618 56290 77% 71 71904 3120 76%
c - 598.33 71 74 146 31880 3219419 46147 59% 56 71904 3120 76%
c 
c  seconds    reductions         redundant   irredundant
c          MB       restarts            trail      variables
c           level         conflicts         glue        remaining
c 
c B 599.84 71 66 146 31888 3240175 61153 52% 50 71904 3120 76%
c ] 599.95 71 70 146 31888 3241119 62005 52% 50 71904 3120 76%
c ? 599.95 71 70 146 31888 3241119 62005 52% 50 71904 3120 76%
c 
c --- [ result ] -------------------------------------------------------------
c 
c UNKNOWN
c 
c --- [ run-time profiling ] -------------------------------------------------
c 
c process time taken by individual solving procedures
c (percentage relative to process time for solving)
c 
c       589.96   98.34% search
c       478.08   79.69% stable
c        70.73   11.79% unstable
c        41.15    6.86% walk
c         9.95    1.66% simplify
c         4.76    0.79% probe
c         1.30    0.22% vivify
c         0.81    0.13% ternary
c         0.70    0.12% subsume
c         0.53    0.09% elim
c         0.04    0.01% parse
c         0.00    0.00% lucky
c   =================================
c       599.91   99.99% solve
c 
c last line shows process time for solving
c (percentage relative to total process time)
c 
c --- [ statistics ] ---------------------------------------------------------
c 
c chronological:            511273        15.77 %  of conflicts
c conflicts:               3241119      5402.70    per second
c decisions:               4265207      7109.77    per second
c eliminated:                  720        17.58 %  of all variables
c fixed:                       256         6.25 %  of all variables
c learned:                 3204710        98.88 %  per conflict
c learned_lits:          445350605       100.00 %  learned literals
c minimized:                     0         0.00 %  learned literals
c shrunken:              199321455        44.76 %  learned literals
c minishrunken:           25544724         5.74 %  learned literals
c propagations:          472321949         0.79 M  per second
c reduced:                 2331145        71.92 %  per conflict
c rephased:                     80     40513.99    interval
c restarts:                  31888       101.64    interval
c stabilizing:                   6        57.88 %  of conflicts
c subsumed:                 809460        12.24 %  of all clauses
c strengthened:              16630         0.25 %  of all clauses
c vivified:                    280         0.00 %  of all clauses
c walked:                       25    129644.76    interval
c weakened:                  29730         2.47    average size
c 
c seconds are measured in process time for solving
c 
c --- [ resources ] ----------------------------------------------------------
c 
c total process time since initialization:       599.95    seconds
c total real time since initialization:          600.00    seconds
c maximum resident set size of process:          134.99    MB
c 
c --- [ shutting down ] ------------------------------------------------------
c 
c exit 0
